<instance format="XCSP3" type="CSP">
  <variables>
    <var id="x0"> 13 14 16 17 </var>
    <var id="x1"> 0 1 7 13 14 16 17 </var>
    <var id="x2"> 12..14 16 </var>
    <var id="x3"> 0 1 7 12 </var>
    <var id="x4"> 0 7 14 16 </var>
    <var id="x5"> 1 7 12 </var>
    <var id="x6"> 0 14 16 17 </var>
    <var id="x7"> 7 12 16 </var>
    <var id="x8"> 10 11 13 16 17 </var>
    <var id="x9"> 3 11 13 15 </var>
    <var id="x10"> 3 10 13 15 </var>
    <var id="x11"> 11 13 16 </var>
    <var id="x12"> 11 16 17 </var>
    <var id="x13"> 3 12 13 15 16 </var>
    <var id="x14"> 11 17 </var>
    <var id="x15"> 3 10 11 15 </var>
    <var id="x16"> 2 11 13 14 </var>
    <var id="x17"> 1 11 13 14 </var>
    <var id="x18"> 1 7 13 </var>
    <var id="x19"> 2 6 11 14 </var>
    <var id="x20"> 4 13 14 </var>
    <var id="x21"> 1 2 4 6 7 </var>
    <var id="x22"> 1 2 11 </var>
    <var id="x23"> 6 7 </var>
    <var id="x24"> 0 1 3 7 </var>
    <var id="x25"> 0 6 8 11 </var>
    <var id="x26"> 7 8 11 </var>
    <var id="x27"> 0 1 4 6 7 </var>
    <var id="x28"> 1 6..8 11 </var>
    <var id="x29"> 1 4 6..8 </var>
    <var id="x30"> 0 1 4 </var>
    <var id="x31"> 1 3 11 </var>
    <var id="x32"> 1 9 11 14 15 </var>
    <var id="x33"> 1 14 </var>
    <var id="x34"> 2 6 9 11 14 </var>
    <var id="x35"> 2 6 9 14 </var>
    <var id="x36"> 1 6 11 14 </var>
    <var id="x37"> 1 2 4 6 </var>
    <var id="x38"> 1 2 4 15 </var>
    <var id="x39"> 6 9 15 </var>
    <var id="x40"> 0 2 6 16 </var>
    <var id="x41"> 0 1 16 </var>
    <var id="x42"> 5 7 </var>
    <var id="x43"> 0..2 5..7 </var>
    <var id="x44"> 1 5..7 </var>
    <var id="x45"> 1 2 </var>
    <var id="x46"> 0 6 16 </var>
    <var id="x47"> 3 10 17 </var>
    <var id="x48"> 0 7 14 17 </var>
    <var id="x49"> 0 3 7 10 15 </var>
    <var id="x50"> 0 14 </var>
    <var id="x51"> 0 3 10 14 </var>
    <var id="x52"> 7 14 17 </var>
    <var id="x53"> 0 10 15 </var>
    <var id="x54"> 5 10 11 14 </var>
    <var id="x55"> 10 11 </var>
    <var id="x56"> 0 7 14 </var>
    <var id="x57"> 0 7 10 15 </var>
    <var id="x58"> 0 11 14 </var>
    <var id="x59"> 0 9 10 14 </var>
    <var id="x60"> 0 9 11 14 </var>
    <var id="x61"> 5 7 </var>
    <var id="x62"> 2 14 </var>
    <var id="x63"> 1 4 6 </var>
    <var id="x64"> 1 9 14 15 </var>
    <var id="x65"> 1 4 9 14 </var>
    <var id="x66"> 2 6 9 14 </var>
    <var id="x67"> 4 14 15 </var>
    <var id="x68"> 2 6 9 14 </var>
    <var id="x69"> 1 6 8 14 </var>
    <var id="x70"> 2 5 13 17 </var>
    <var id="x71"> 3 4 17 </var>
    <var id="x72"> 0 3 9 13 </var>
    <var id="x73"> 0 13 17 </var>
    <var id="x74"> 3..5 13 </var>
    <var id="x75"> 5 9 17 </var>
    <var id="x76"> 0 2 9 </var>
    <var id="x77"> 3 5 9 </var>
    <var id="x78"> 0 6 8 13 16 </var>
    <var id="x79"> 0 1 9 16 </var>
    <var id="x80"> 7..9 </var>
    <var id="x81"> 0 1 6 7 </var>
    <var id="x82"> 0 6 7 9 16 </var>
    <var id="x83"> 0 1 13 16 </var>
    <var id="x84"> 0 6 8 9 16 </var>
    <var id="x85"> 6 7 9 16 </var>
    <var id="x86"> 3 6 10 11 </var>
    <var id="x87"> 3 11 14 15 </var>
    <var id="x88"> 8 14 16 </var>
    <var id="x89"> 3 10 15 </var>
    <var id="x90"> 3 10 14 16 </var>
    <var id="x91"> 8 11 14 </var>
    <var id="x92"> 6 8 </var>
    <var id="x93"> 3 6 15 16 </var>
    <var id="x94"> 1 12 17 </var>
    <var id="x95"> 1 14 16 17 </var>
    <var id="x96"> 9 14 16 17 </var>
    <var id="x97"> 1 5 12 </var>
    <var id="x98"> 1 9 </var>
    <var as="x96" id="x99"/>
    <var id="x100"> 5 9 12 16 </var>
    <var id="x101"> 0 3 11 14 </var>
    <var id="x102"> 0 11 14 </var>
    <var id="x103"> 0 11 14 17 </var>
    <var id="x104"> 5 11 14 17 </var>
    <var id="x105"> 0 4 5 </var>
    <var as="x104" id="x106"/>
    <var id="x107"> 0 4 10 </var>
    <var id="x108"> 0 3 14 17 </var>
    <var id="x109"> 7 8 16 </var>
    <var id="x110"> 3 7 10 </var>
    <var id="x111"> 3 5 16 </var>
    <var id="x112"> 2 6 7 10 16 </var>
    <var id="x113"> 5..8 </var>
    <var id="x114"> 2 10 16 </var>
    <var id="x115"> 2 3 10 </var>
    <var id="x116"> 3 6 8 16 </var>
    <var id="x117"> 5 11 14 16 </var>
    <var id="x118"> 0 1 3 11 14 </var>
    <var id="x119"> 0 1 3 14 16 </var>
    <var id="x120"> 0 1 5 12 </var>
    <var id="x121"> 0 14 16 </var>
    <var id="x122"> 1 5 11 14 </var>
    <var id="x123"> 1 5 12 </var>
    <var id="x124"> 0 1 16 </var>
    <var id="x125"> 2 13 16 </var>
    <var id="x126"> 6 12 </var>
    <var id="x127"> 0 2 6 8 13 16 </var>
    <var id="x128"> 0 2 6 9 16 </var>
    <var id="x129"> 12 13 16 </var>
    <var id="x130"> 2 6 8 12 </var>
    <var as="x84" id="x131"/>
    <var id="x132"> 6 9 12 16 </var>
    <var id="x133"> 1 10 17 </var>
    <var id="x134"> 1 9 10 14 16 </var>
    <var id="x135"> 13 14 16 </var>
    <var id="x136"> 2 9 10 14 16 </var>
    <var id="x137"> 1 2 </var>
    <var id="x138"> 1 2 10 13 16 </var>
    <var id="x139"> 1 2 9 10 </var>
    <var as="x96" id="x140"/>
  </variables>
  <constraints>
    <group>
      <allDifferent> %... </allDifferent>
      <args> x0 x1 x2 x3 x4 x5 x6 x7 </args>
      <args> x8 x9 x10 x11 x12 x13 x14 x15 </args>
      <args> x16 x17 x18 x19 x20 x21 x22 x23 </args>
      <args> x24 x25 x26 x27 x28 x29 x30 x31 </args>
      <args> x32 x33 x34 x35 x36 x37 x38 x39 </args>
      <args> x40 x41 x42 x43 x44 x45 x46 </args>
      <args> x47 x48 x49 x50 x51 x52 x53 </args>
      <args> x54 x55 x56 x57 x58 x59 x60 x61 </args>
      <args> x62 x63 x64 x65 x66 x67 x68 x69 </args>
      <args> x70 x71 x72 x73 x74 x75 x76 x77 </args>
      <args> x78 x79 x80 x81 x82 x83 x84 x85 </args>
      <args> x86 x87 x88 x89 x90 x91 x92 x93 </args>
      <args> x94 x95 x96 x97 x98 x99 x100 </args>
      <args> x101 x102 x103 x104 x105 x106 x107 x108 </args>
      <args> x109 x110 x111 x112 x113 x114 x115 x116 </args>
      <args> x117 x118 x119 x120 x121 x122 x123 x124 </args>
      <args> x125 x126 x127 x128 x129 x130 x131 x132 </args>
      <args> x133 x134 x135 x136 x137 x138 x139 x140 </args>
      <args> x0 x8 x16 x54 x62 x70 x117 x125 </args>
      <args> x47 x55 x63 x71 x86 x94 x126 x133 </args>
      <args> x9 x17 x32 x64 x72 x87 x101 x118 </args>
      <args> x1 x33 x48 x56 x73 x88 x95 x109 </args>
      <args> x10 x18 x24 x49 x57 x89 x110 </args>
      <args> x11 x25 x40 x50 x58 x78 x102 x127 </args>
      <args> x41 x51 x59 x65 x79 x90 x119 x134 </args>
      <args> x12 x19 x34 x60 x66 x96 x103 x128 </args>
      <args> x2 x13 x20 x67 x74 x111 x129 x135 </args>
      <args> x26 x42 x52 x75 x80 x91 x104 </args>
      <args> x3 x21 x27 x43 x81 x97 x105 x120 </args>
      <args> x4 x35 x68 x76 x82 x112 x121 x136 </args>
      <args> x14 x28 x36 x44 x69 x106 x113 x122 </args>
      <args> x5 x29 x37 x61 x92 x123 x130 x137 </args>
      <args> x30 x38 x53 x83 x107 x114 x124 x138 </args>
      <args> x15 x22 x31 x45 x98 x115 x139 </args>
      <args> x6 x46 x84 x99 x108 x116 x131 x140 </args>
      <args> x7 x23 x39 x77 x85 x93 x100 x132 </args>
    </group>
  </constraints>
</instance>

